# Objective value = 2.9833335981870306e+02
x[0] 1
x[1] 1
x[2] 0
x[3] 0
x[4] 0
x[5] 0
x[6] 1
x[7] 1
x[8] 0
x[9] 1
x[10] 0
x[11] 0
x[12] 0
x[13] 1
x[14] 0
x[15] 0
x[16] 1
x[17] 0
x[18] 0
x[19] 1
x[20] 0
x[21] 0
x[22] 0
x[23] 1
x[24] 0
x[25] 1
x[26] 1
x[27] 1
x[28] 1
x[29] 1
x[30] 0
x[31] 1
x[32] 1
x[33] 1
x[34] 0
x[35] 0
x[36] 0
x[37] 1
x[38] 0
x[39] 1
x[40] 0
x[41] 0
x[42] 1
x[43] 0
x[44] 1
x[45] 0
x[46] 1
x[47] 1
x[48] 1
x[49] 0
x[50] 1
x[51] 0
x[52] 1
x[53] 1
x[54] 0
x[55] 1
x[56] 1
x[57] 0
x[58] 0
x[59] 1
x[60] 0
x[61] 0
x[62] 1
x[63] 0
x[64] 0
x[65] 0
x[66] 0
x[67] 0
x[68] 1
x[69] 0
x[70] 1
x[71] 0
x[72] 0
x[73] 0
x[74] 0
x[75] 0
x[76] 1
x[77] 0
x[78] 1
x[79] 0
x[80] 0
x[81] 1
x[82] 0
x[83] 1
x[84] 1
x[85] 0
x[86] 1
x[87] 0
x[88] 1
x[89] 0
x[90] 1
x[91] 0
x[92] 0
x[93] 1
x[94] 1
x[95] 0
x[96] 1
x[97] 1
x[98] 1
x[99] 0
x[100] 1
x[101] 1
x[102] 1
x[103] 1
x[104] 1
x[105] 0
x[106] 1
x[107] 0
x[108] 1
x[109] 0
x[110] 0
x[111] 1
x[112] 0
x[113] 1
x[114] 1
x[115] 1
x[116] 0
x[117] 1
x[118] 1
x[119] 1
x[120] 1
x[121] 0
x[122] 1
x[123] 1
x[124] 1
x[125] 1
x[126] 0
x[127] 1
x[128] 0
x[129] 0
x[130] 0
x[131] 0
x[132] 0
x[133] 0
x[134] 1
x[135] 1
x[136] 0
x[137] 1
x[138] 0
x[139] 0
x[140] 0
x[141] 1
x[142] 0
x[143] 1
x[144] 0
x[145] 0
x[146] 1
x[147] 1
x[148] 1
x[149] 1
x[150] 1
x[151] 0
x[152] 0
x[153] 1
x[154] 1
x[155] 0
x[156] 0
x[157] 0
x[158] 0
x[159] 0
x[160] 1
x[161] 0
x[162] 0
x[163] 0
x[164] 1
x[165] 0
x[166] 0
x[167] 1
x[168] 0
x[169] 0
x[170] 1
x[171] 1
x[172] 0
x[173] 1
x[174] 0
x[175] 0
x[176] 1
x[177] 1
x[178] 0
x[179] 1
x[180] 0
x[181] 0
x[182] 1
x[183] 0
x[184] 1
x[185] 0
x[186] 1
x[187] 0
x[188] 0
x[189] 0
x[190] 1
x[191] 0
x[192] 1
x[193] 0
x[194] 1
x[195] 0
x[196] 1
x[197] 0
x[198] 0
x[199] 0
x[200] 1
x[201] 0
x[202] 0
x[203] 0
x[204] 0
x[205] 0
x[206] 0
x[207] 1
x[208] 1
x[209] 1
x[210] 1
x[211] 1
x[212] 0
x[213] 0
x[214] 1
x[215] 0
x[216] 0
x[217] 0
x[218] 0
x[219] 1
x[220] 1
x[221] 0
x[222] 0
x[223] 0
x[224] 1
x[225] 0
x[226] 0
x[227] 1
x[228] 1
x[229] 1
x[230] 1
x[231] 0
x[232] 1
x[233] 1
x[234] 1
x[235] 0
x[236] 0
x[237] 1
x[238] 0
x[239] 0
x[240] 0
x[241] 0
x[242] 1
x[243] 1
x[244] 0
x[245] 1
x[246] 1
x[247] 0
x[248] 1
x[249] 1
x[250] 0
x[251] 0
x[252] 0
x[253] 1
x[254] 0
x[255] 0
x[256] 0
x[257] 0
x[258] 0
x[259] 0
x[260] 1
x[261] 0
x[262] 1
x[263] 0
x[264] 0
x[265] 1
x[266] 0
x[267] 0
x[268] 1
x[269] 0
x[270] 0
x[271] 1
x[272] 0
x[273] 0
x[274] 1
x[275] 0
x[276] 1
x[277] 1
x[278] 1
x[279] 0
x[280] 0
x[281] 1
x[282] 0
x[283] 1
x[284] 0
x[285] 1
x[286] 1
x[287] 1
x[288] 1
x[289] 0
x[290] 1
x[291] 1
x[292] 1
x[293] 1
x[294] 1
x[295] 1
x[296] 1
x[297] 0
x[298] 1
x[299] 0
x[300] 1
x[301] 1
x[302] 1
x[303] 1
x[304] 1
x[305] 0
x[306] 0
x[307] 0
x[308] 1
x[309] 0
x[310] 0
x[311] 1
x[312] 1
x[313] 1
x[314] 0
x[315] 0
x[316] 1
x[317] 1
x[318] 1
x[319] 0
x[320] 0
x[321] 0
x[322] 1
x[323] 1
x[324] 1
x[325] 1
x[326] 0
x[327] 0
x[328] 0
x[329] 0
x[330] 1
x[331] 0
x[332] 0
x[333] 1
x[334] 0
x[335] 0
x[336] 1
x[337] 0
x[338] 0
x[339] 1
x[340] 1
x[341] 0
x[342] 0
x[343] 1
x[344] 1
x[345] 1
x[346] 1
x[347] 0
x[348] 0
x[349] 0
x[350] 0
x[351] 0
x[352] 0
x[353] 0
x[354] 0
x[355] 0
x[356] 0
x[357] 0
x[358] 1
x[359] 1
x[360] 1
x[361] 0
x[362] 0
x[363] 1
x[364] 0
x[365] 1
x[366] 0
x[367] 1
x[368] 1
x[369] 1
x[370] 1
x[371] 0
x[372] 1
x[373] 0
x[374] 0
x[375] 0
x[376] 0
x[377] 0
x[378] 0
x[379] 1
x[380] 1
x[381] 1
x[382] 1
x[383] 0
x[384] 0
x[385] 0
x[386] 0
x[387] 0
x[388] 1
x[389] 1
x[390] 0
x[391] 1
x[392] 0
x[393] 1
x[394] 1
x[395] 0
x[396] 0
x[397] 0
x[398] 1
x[399] 0
x[400] 1
x[401] 1
x[402] 0
x[403] 0
x[404] 1
x[405] 0
x[406] 0
x[407] 1
x[408] 0
x[409] 0
x[410] 1
x[411] 1
x[412] 0
x[413] 1
x[414] 1
x[415] 0
x[416] 1
x[417] 1
x[418] 0
x[419] 1
x[420] 0
x[421] 1
x[422] 0
x[423] 1
x[424] 1
x[425] 0
x[426] 0
x[427] 0
x[428] 1
x[429] 0
x[430] 0
x[431] 1
x[432] 1
x[433] 1
x[434] 1
x[435] 0
x[436] 0
x[437] 1
x[438] 1
x[439] 0
x[440] 0
x[441] 0
x[442] 0
x[443] 1
x[444] 1
x[445] 0
x[446] 0
x[447] 1
x[448] 1
x[449] 0
x[450] 1
x[451] 1
x[452] 0
x[453] 1
x[454] 0
x[455] 1
x[456] 0
x[457] 1
x[458] 1
x[459] 0
x[460] 1
x[461] 1
x[462] 0
x[463] 0
x[464] 1
x[465] 0
x[466] 1
x[467] 0
x[468] 0
x[469] 0
x[470] 0
x[471] 0
x[472] 1
x[473] 0
x[474] 0
x[475] 0
x[476] 1
x[477] 1
x[478] 1
x[479] 1
x[480] 0
x[481] 0
x[482] 1
x[483] 1
x[484] 0
x[485] 0
x[486] 0
x[487] 1
x[488] 1
x[489] 1
x[490] 0
x[491] 0
x[492] 0
x[493] 1
x[494] 0
x[495] 1
x[496] 0
x[497] 1
x[498] 0
x[499] 1
x[500] 0
x[501] 0
x[502] 0
x[503] 1
x[504] 1
x[505] 1
x[506] 1
x[507] 0
x[508] 1
x[509] 0
x[510] 1
x[511] 0
x[512] 0
x[513] 1
x[514] 0
x[515] 1
x[516] 1
x[517] 0
x[518] 1
x[519] 0
x[520] 0
x[521] 0
x[522] 1
x[523] 0
x[524] 1
x[525] 1
x[526] 1
x[527] 0
x[528] 1
x[529] 1
x[530] 0
x[531] 0
x[532] 1
x[533] 1
x[534] 0
x[535] 1
x[536] 1
x[537] 1
x[538] 0
x[539] 0
x[540] 0
x[541] 1
x[542] 0
x[543] 0
x[544] 0
x[545] 0
x[546] 0
x[547] 1
x[548] 1
x[549] 1
x[550] 1
x[551] 0
x[552] 0
x[553] 1
x[554] 0
x[555] 0
x[556] 0
x[557] 0
x[558] 1
x[559] 1
x[560] 0
x[561] 0
x[562] 1
x[563] 0
x[564] 1
x[565] 0
x[566] 0
x[567] 1
x[568] 0
x[569] 1
x[570] 1
x[571] 0
x[572] 1
x[573] 1
x[574] 1
x[575] 1
x[576] 0
x[577] 0
x[578] 0
x[579] 1
x[580] 0
x[581] 1
x[582] 1
x[583] 1
x[584] 1
x[585] 1
x[586] 0
x[587] 1
x[588] 0
x[589] 0
x[590] 1
x[591] 1
x[592] 0
x[593] 1
x[594] 0
x[595] 1
x[596] 0
x[597] 1
x[598] 0
x[599] 0
x[600] 1
x[601] 0
x[602] 0
x[603] 0
x[604] 0
x[605] 1
x[606] 0
x[607] 0
x[608] 0
x[609] 1
x[610] 0
x[611] 0
x[612] 1
x[613] 1
x[614] 1
x[615] 0
x[616] 0
x[617] 0
x[618] 0
x[619] 0
x[620] 0
x[621] 0
x[622] 0
x[623] 1
x[624] 1
x[625] 0
x[626] 1
x[627] 1
x[628] 0
x[629] 0
x[630] 1
x[631] 1
x[632] 0
x[633] 0
x[634] 0
x[635] 1
x[636] 0
x[637] 1
x[638] 0
x[639] 0
x[640] 0
x[641] 1
x[642] 1
x[643] 0
x[644] 1
x[645] 0
x[646] 0
x[647] 0
x[648] 0
x[649] 1
x[650] 1
x[651] 1
x[652] 0
x[653] 1
x[654] 0
x[655] 0
x[656] 1
x[657] 1
x[658] 1
x[659] 1
x[660] 0
x[661] 1
x[662] 1
x[663] 1
x[664] 0
x[665] 0
x[666] 1
x[667] 0
x[668] 1
x[669] 0
x[670] 0
x[671] 1
x[672] 1
x[673] 1
x[674] 1
x[675] 0
x[676] 1
x[677] 1
x[678] 1
x[679] 0
x[680] 0
x[681] 0
x[682] 1
x[683] 1
x[684] 0
x[685] 0
x[686] 1
x[687] 0
x[688] 1
x[689] 0
x[690] 0
x[691] 0
x[692] 0
x[693] 0
x[694] 0
x[695] 0
x[696] 0
x[697] 1
x[698] 1
x[699] 1
x[700] 0
x[701] 1
x[702] 1
x[703] 0
x[704] 0
x[705] 0
x[706] 1
x[707] 0
x[708] 1
x[709] 0
x[710] 1
x[711] 0
x[712] 0
x[713] 0
x[714] 0
x[715] 0
x[716] 0
x[717] 0
x[718] 1
x[719] 0
x[720] 1
x[721] 0
x[722] 1
x[723] 1
x[724] 0
x[725] 1
x[726] 1
x[727] 1
x[728] 1
x[729] 1
x[730] 0
x[731] 1
x[732] 0
x[733] 1
x[734] 1
x[735] 1
x[736] 0
x[737] 1
x[738] 0
x[739] 0
x[740] 0
x[741] 0
x[742] 0
x[743] 0
x[744] 1
x[745] 0
x[746] 0
x[747] 0
x[748] 1
x[749] 1
x[750] 0
x[751] 0
x[752] 1
x[753] 0
x[754] 1
x[755] 0
x[756] 0
x[757] 0
x[758] 1
x[759] 0
x[760] 1
x[761] 1
x[762] 1
x[763] 0
x[764] 1
x[765] 1
x[766] 1
x[767] 0
x[768] 1
x[769] 0
x[770] 1
x[771] 1
x[772] 0
x[773] 0
x[774] 0
x[775] 1
x[776] 0
x[777] 0
x[778] 0
x[779] 1
x[780] 1
x[781] 0
x[782] 1
x[783] 1
x[784] 1
x[785] 0
x[786] 0
x[787] 0
x[788] 1
x[789] 1
x[790] 1
x[791] 1
x[792] 0
x[793] 1
x[794] 1
x[795] 0
x[796] 0
x[797] 0
x[798] 0
x[799] 1
x[800] 1
x[801] 1
x[802] 1
x[803] 1
x[804] 0
x[805] 0
x[806] 1
x[807] 1
x[808] 1
x[809] 0
x[810] 0
x[811] 1
x[812] 1
x[813] 1
x[814] 1
x[815] 1
x[816] 0
x[817] 1
x[818] 1
x[819] 1
x[820] 0
x[821] 0
x[822] 0
x[823] 0
x[824] 0
x[825] 1
x[826] 1
x[827] 1
x[828] 1
x[829] 0
x[830] 1
x[831] 1
x[832] 1
x[833] 0
x[834] 0
x[835] 0
x[836] 0
x[837] 0
x[838] 0
x[839] 0
x[840] 0
x[841] 0
x[842] 1
x[843] 1
x[844] 1
x[845] 1
x[846] 1
x[847] 1
x[848] 0
x[849] 0
x[850] 1
x[851] 1
x[852] 0
x[853] 0
x[854] 0
x[855] 1
x[856] 1
x[857] 1
x[858] 1
x[859] 1
x[860] 0
x[861] 0
x[862] 1
x[863] 1
x[864] 1
x[865] 0
x[866] 0
x[867] 1
x[868] 0
x[869] 1
x[870] 1
x[871] 1
x[872] 1
x[873] 0
x[874] 0
x[875] 0
x[876] 0
x[877] 0
x[878] 0
x[879] 0
x[880] 1
x[881] 1
x[882] 1
x[883] 0
x[884] 0
x[885] 0
x[886] 1
x[887] 0
x[888] 0
x[889] 1
x[890] 0
x[891] 1
x[892] 0
x[893] 0
x[894] 1
x[895] 1
x[896] 1
x[897] 0
x[898] 0
x[899] 0
x[900] 0
x[901] 1
x[902] 0
x[903] 0
x[904] 1
x[905] 0
x[906] 0
x[907] 0
x[908] 0
x[909] 1
x[910] 0
x[911] 0
x[912] 1
x[913] 0
x[914] 1
x[915] 0
x[916] 0
x[917] 1
x[918] 1
x[919] 1
x[920] 1
x[921] 0
x[922] 0
x[923] 1
x[924] 1
x[925] 1
x[926] 1
x[927] 1
x[928] 0
x[929] 1
x[930] 0
x[931] 1
x[932] 1
x[933] 0
x[934] 0
x[935] 1
x[936] 0
x[937] 0
x[938] 1
x[939] 0
x[940] 0
x[941] 0
x[942] 0
x[943] 0
x[944] 1
x[945] 0
x[946] 1
x[947] 0
x[948] 1
x[949] 1
x[950] 0
x[951] 0
x[952] 1
x[953] 1
x[954] 1
x[955] 1
x[956] 0
x[957] 0
x[958] 1
x[959] 0
x[960] 1
x[961] 1
x[962] 1
x[963] 1
x[964] 1
x[965] 0
x[966] 0
x[967] 1
x[968] 1
x[969] 1
x[970] 1
x[971] 0
x[972] 0
x[973] 0
x[974] 1
x[975] 1
x[976] 0
x[977] 1
x[978] 1
x[979] 1
x[980] 1
x[981] 0
x[982] 0
x[983] 0
x[984] 0
x[985] 0
x[986] 0
x[987] 0
x[988] 0
x[989] 0
x[990] 0
x[991] 1
x[992] 1
x[993] 0
x[994] 0
x[995] 1
x[996] 1
x[997] 1
x[998] 0
x[999] 1
